instances/knapsack/discrete/knapsack_80_20.kp
75400
80
373

63 6.3 57
59 5.9 30
41 4.1 43
66 6.6 15
63 6.3 61
57 5.7 100
20 2.0 85
15 1.5 75
68 6.8 30
5 0.5 54
51 5.1 58
98 9.8 22
27 2.7 30
87 8.7 97
4 0.4 46
60 6.0 43
24 2.4 17
79 7.9 77
12 1.2 70
49 4.9 97
8 0.8 81
63 6.3 14
31 3.1 23
50 5.0 67
92 9.2 12
27 2.7 6
33 3.3 27
19 1.9 79
53 5.3 25
62 6.2 24
29 2.9 28
31 3.1 47
67 6.7 79
92 9.2 46
27 2.7 11
60 6.0 68
31 3.1 76
32 3.2 94
23 2.3 46
38 3.8 75
10 1.0 79
29 2.9 45
25 2.5 77
77 7.7 66
70 7.0 26
66 6.6 78
49 4.9 36
25 2.5 88
2 0.2 32
47 4.7 1
18 1.8 50
63 6.3 34
40 4.0 98
7 0.7 24
88 8.8 35
11 1.1 49
80 8.0 90
42 4.2 75
35 3.5 43
57 5.7 78
64 6.4 3
54 5.4 77
23 2.3 93
74 7.4 49
91 9.1 30
19 1.9 76
24 2.4 60
30 3.0 13
75 7.5 40
93 9.3 81
49 4.9 20
97 9.7 54
13 1.3 56
90 9.0 89
99 9.9 70
88 8.8 17
58 5.8 29
74 7.4 84
88 8.8 79
62 6.2 51

22678
405

[4.96 2.63 4.59 3.14 0.38 0.88 0.95 2.37 0.3 2.05 3.97 3.69 2.53 0.1 2.27 0.05 1.26 3.8 0.55 0.92 0.43 4.02 3.03 3.13 1.03 1.27 4.71 3.43 2.5 4.32 2.26 4.26 3.88 2.04 4.8 0.69 2.83 5.04 3.82 1.07 1.12 3.98 1.72 1.92 2.26 3.78 4.55 4.66 2.37 2.33 2.58 2.71 3.86 3.46 3.2 3.0 1.88 1.15 2.86 4.47 4.18 3.31 0.57 4.76 4.52 4.31 4.4 2.75 1.76 3.98 0.19 2.57 2.28 3.36 0.76 1.24 4.87 3.64 2.46 4.76]

[6 82 16 13 26 96 99 2 51 84 66 53 6 46 27 99 83 38 51 8 95 22 42 45 55 42 84 46 20 17 76 82 34 87 50 3 34 91 78 89 61 20 88 68 53 89 40 32 45 2 73 62 35 18 51 30 27 41 78 12 31 13 94 81 90 38 47 61 58 84 28 88 96 85 34 63 85 93 43 77]
