instances/knapsack/discrete_knapsack_uncertainty/knapsack_80_20.lp
\ Model knapsack_80_20
\ LP format - for model browsing. Use MPS format to capture full model detail.
\ Signature: 0xf86d0bbf74a39a5e
Minimize
  - 42 x[0] - 47 x[1] - 24 x[2] - 48 x[3] - 34 x[4] - 53 x[5] - 18 x[6]
   - 84 x[7] - 39 x[8] - 19 x[9] - 7 x[10] - 27 x[11] - 55 x[12] - 2 x[13]
   - 95 x[14] - 4 x[15] - 58 x[16] - 54 x[17] - 79 x[18] - 18 x[19]
   - 58 x[20] - 31 x[21] - 56 x[22] - 8 x[23] - 89 x[24] - 91 x[25]
   - 72 x[26] - 76 x[27] - 38 x[28] - 65 x[29] - 61 x[30] - 20 x[31]
   - 20 x[32] - 99 x[33] - 92 x[34] - 57 x[35] - 33 x[36] - 35 x[37]
   - 11 x[38] - 64 x[39] - 64 x[40] - 46 x[41] - 26 x[42] - 71 x[43]
   - 91 x[44] - 63 x[45] - 85 x[46] - 85 x[47] - 13 x[48] - 86 x[49]
   - 47 x[50] - 63 x[51] - 11 x[52] - 5 x[53] - 28 x[54] - 70 x[55]
   - 99 x[56] - 76 x[57] - 48 x[58] - 15 x[59] - 80 x[60] - 30 x[61]
   - 62 x[62] - 6 x[63] - 79 x[64] - 5 x[65] - 41 x[66] - 6 x[67]
   - 25 x[68] - 22 x[69] - 37 x[70] - 67 x[71] - 41 x[72] - 98 x[73]
   - 99 x[74] - 18 x[75] - 98 x[76] - 29 x[77] - 92 x[78] - 32 x[79]
Subject To
 primal_upper: 24 x[0] + 40 x[1] + 46 x[2] + 71 x[3] + 64 x[4] + 10 x[5]
   + 77 x[6] + 48 x[7] + 41 x[8] + 54 x[9] + 96 x[10] + 95 x[11] + 72 x[12]
   + 20 x[13] + 89 x[14] + 49 x[15] + 57 x[16] + 32 x[17] + 13 x[18]
   + 90 x[19] + 37 x[20] + 96 x[21] + 44 x[22] + 23 x[23] + 29 x[24]
   + 28 x[25] + 22 x[26] + 24 x[27] + 50 x[28] + 55 x[29] + 30 x[30]
   + 32 x[31] + 92 x[32] + 33 x[33] + 72 x[34] + 41 x[35] + 4 x[36]
   + 41 x[37] + 76 x[38] + 91 x[39] + 19 x[40] + 6 x[41] + 78 x[42]
   + 10 x[43] + 31 x[44] + 23 x[45] + 70 x[46] + 6 x[47] + 3 x[48]
   + 72 x[49] + 39 x[50] + 44 x[51] + 17 x[52] + 76 x[53] + 73 x[54]
   + 36 x[55] + 85 x[56] + 79 x[57] + 80 x[58] + 6 x[59] + 93 x[60]
   + 43 x[61] + 56 x[62] + 79 x[63] + 24 x[64] + 64 x[65] + 69 x[66]
   + 99 x[67] + 32 x[68] + 6 x[69] + 50 x[70] + 78 x[71] + 42 x[72]
   + 79 x[73] + 48 x[74] + 69 x[75] + 51 x[76] + 23 x[77] + 17 x[78]
   + 75 x[79] + 2.4 r[0] + 4 r[1] + 4.6 r[2] + 7.1 r[3] + 6.4 r[4] + r[5]
   + 7.7 r[6] + 4.8 r[7] + 4.1 r[8] + 5.4 r[9] + 9.6 r[10] + 9.5 r[11]
   + 7.2 r[12] + 2 r[13] + 8.9 r[14] + 4.9 r[15] + 5.7 r[16] + 3.2 r[17]
   + 1.3 r[18] + 9 r[19] + 3.7 r[20] + 9.6 r[21] + 4.4 r[22] + 2.3 r[23]
   + 2.9 r[24] + 2.8 r[25] + 2.2 r[26] + 2.4 r[27] + 5 r[28] + 5.5 r[29]
   + 3 r[30] + 3.2 r[31] + 9.2 r[32] + 3.3 r[33] + 7.2 r[34] + 4.1 r[35]
   + 0.4 r[36] + 4.1 r[37] + 7.6 r[38] + 9.1 r[39] + 1.9 r[40] + 0.6 r[41]
   + 7.8 r[42] + r[43] + 3.1 r[44] + 2.3 r[45] + 7 r[46] + 0.6 r[47]
   + 0.3 r[48] + 7.2 r[49] + 3.9 r[50] + 4.4 r[51] + 1.7 r[52] + 7.6 r[53]
   + 7.3 r[54] + 3.6 r[55] + 8.5 r[56] + 7.9 r[57] + 8 r[58] + 0.6 r[59]
   + 9.3 r[60] + 4.3 r[61] + 5.6 r[62] + 7.9 r[63] + 2.4 r[64] + 6.4 r[65]
   + 6.9 r[66] + 9.9 r[67] + 3.2 r[68] + 0.6 r[69] + 5 r[70] + 7.8 r[71]
   + 4.2 r[72] + 7.9 r[73] + 4.8 r[74] + 6.9 r[75] + 5.1 r[76] + 2.3 r[77]
   + 1.7 r[78] + 7.5 r[79] <= 376
 primal_lower: 2.568031328965897 x[0] + 4.409438340007938 x[1]
   + 2.744369072952434 x[2] + 1.285696392753599 x[3]
   + 3.575608089618486 x[4] + 3.109914417504837 x[5]
   + 2.564303484736356 x[6] + 2.982156017976173 x[7]
   + 1.748670135893143 x[8] + 4.052397366916194 x[9]
   + 3.382227402747564 x[10] + 2.796138943360197 x[11]
   + 4.03919058816424 x[12] + 3.929743210826761 x[13]
   + 4.623035540018952 x[14] + 3.103439130169133 x[15]
   + 0.7080167370203559 x[16] + 0.7571143623624279 x[17]
   + 3.508912459519005 x[18] + 4.68718033295902 x[19]
   + 3.072568747636696 x[20] + 3.659432695527123 x[21]
   + 4.216374860823289 x[22] + 0.2654085476582724 x[23]
   + 0.4560570153925294 x[24] + 1.790160720128192 x[25]
   + 1.032261436544219 x[26] + 3.680766849704608 x[27]
   + 2.66213534839751 x[28] + 0.2902839511403181 x[29]
   + 0.9250450470211888 x[30] + 1.834165131735748 x[31]
   + 4.159713703280064 x[32] + 4.590961062151276 x[33]
   + 2.623192199962658 x[34] + 2.912708313389427 x[35]
   + 4.10543740172962 x[36] + 2.223968605259325 x[37]
   + 0.9403015547434742 x[38] + 1.057561437241688 x[39]
   + 3.789583312342542 x[40] + 0.1592869985522938 x[41]
   + 4.533180499097176 x[42] + 0.3037664430527918 x[43]
   + 0.8603102379553319 x[44] + 2.677010287855734 x[45]
   + 3.795964230788964 x[46] + 4.828623830606058 x[47]
   + 4.16561270828571 x[48] + 0.7782056205634315 x[49]
   + 3.530684549686345 x[50] + 1.721525508387435 x[51]
   + 4.054369102941145 x[52] + 3.81537990180774 x[53]
   + 0.4225503027930516 x[54] + 2.125648398628567 x[55]
   + 0.8425639838964583 x[56] + 3.739116146674587 x[57]
   + 3.990606404551564 x[58] + 1.407064915067449 x[59]
   + 0.8308924957403132 x[60] + 3.399286159575609 x[61]
   + 0.6569531149629507 x[62] + 3.280929790286841 x[63]
   + 3.504655683886227 x[64] + 4.664813488399029 x[65]
   + 1.553800136988625 x[66] + 0.7231253688673525 x[67]
   + 1.543763446119701 x[68] + 4.188317030592917 x[69]
   + 1.324097263217986 x[70] + 4.794134107991671 x[71]
   + 3.742775428802337 x[72] + 1.45651335518794 x[73]
   + 4.453087620773892 x[74] + 4.226207332994337 x[75]
   + 2.433471541086178 x[76] + 1.261884390480353 x[77]
   + 1.319714638816071 x[78] + 4.555249065094434 x[79] + 2 u[0] + 67 u[1]
   + 33 u[2] + 38 u[3] + 43 u[4] + 56 u[5] + 52 u[6] + 70 u[7] + 36 u[8]
   + u[9] + 86 u[10] + 58 u[11] + 87 u[12] + 95 u[13] + 55 u[14] + 39 u[15]
   + 12 u[16] + 55 u[17] + 56 u[18] + 9 u[19] + 12 u[20] + 54 u[21]
   + 87 u[22] + 9 u[23] + 51 u[24] + 43 u[25] + 21 u[26] + 18 u[27]
   + 68 u[28] + 18 u[29] + 80 u[30] + 66 u[31] + 78 u[32] + 28 u[33]
   + 27 u[34] + 68 u[35] + 31 u[36] + 79 u[37] + 83 u[38] + 29 u[39]
   + 86 u[40] + 24 u[41] + 65 u[42] + 100 u[43] + 58 u[44] + 49 u[45]
   + 48 u[46] + 20 u[47] + 58 u[48] + 27 u[49] + 81 u[50] + 27 u[51]
   + 16 u[52] + 35 u[53] + 63 u[54] + 82 u[55] + 80 u[56] + 97 u[57]
   + 63 u[58] + 53 u[59] + 51 u[60] + 93 u[61] + 98 u[62] + 37 u[63]
   + 30 u[64] + 35 u[65] + 63 u[66] + 9 u[67] + 63 u[68] + 32 u[69]
   + 84 u[70] + 16 u[71] + 37 u[72] + 34 u[73] + 82 u[74] + 87 u[75]
   + 29 u[76] + 66 u[77] + 87 u[78] + 21 u[79] <= 77467
 mccormick1[0]: - u[0] + r[0] <= 0
 mccormick1[1]: - u[1] + r[1] <= 0
 mccormick1[2]: - u[2] + r[2] <= 0
 mccormick1[3]: - u[3] + r[3] <= 0
 mccormick1[4]: - u[4] + r[4] <= 0
 mccormick1[5]: - u[5] + r[5] <= 0
 mccormick1[6]: - u[6] + r[6] <= 0
 mccormick1[7]: - u[7] + r[7] <= 0
 mccormick1[8]: - u[8] + r[8] <= 0
 mccormick1[9]: - u[9] + r[9] <= 0
 mccormick1[10]: - u[10] + r[10] <= 0
 mccormick1[11]: - u[11] + r[11] <= 0
 mccormick1[12]: - u[12] + r[12] <= 0
 mccormick1[13]: - u[13] + r[13] <= 0
 mccormick1[14]: - u[14] + r[14] <= 0
 mccormick1[15]: - u[15] + r[15] <= 0
 mccormick1[16]: - u[16] + r[16] <= 0
 mccormick1[17]: - u[17] + r[17] <= 0
 mccormick1[18]: - u[18] + r[18] <= 0
 mccormick1[19]: - u[19] + r[19] <= 0
 mccormick1[20]: - u[20] + r[20] <= 0
 mccormick1[21]: - u[21] + r[21] <= 0
 mccormick1[22]: - u[22] + r[22] <= 0
 mccormick1[23]: - u[23] + r[23] <= 0
 mccormick1[24]: - u[24] + r[24] <= 0
 mccormick1[25]: - u[25] + r[25] <= 0
 mccormick1[26]: - u[26] + r[26] <= 0
 mccormick1[27]: - u[27] + r[27] <= 0
 mccormick1[28]: - u[28] + r[28] <= 0
 mccormick1[29]: - u[29] + r[29] <= 0
 mccormick1[30]: - u[30] + r[30] <= 0
 mccormick1[31]: - u[31] + r[31] <= 0
 mccormick1[32]: - u[32] + r[32] <= 0
 mccormick1[33]: - u[33] + r[33] <= 0
 mccormick1[34]: - u[34] + r[34] <= 0
 mccormick1[35]: - u[35] + r[35] <= 0
 mccormick1[36]: - u[36] + r[36] <= 0
 mccormick1[37]: - u[37] + r[37] <= 0
 mccormick1[38]: - u[38] + r[38] <= 0
 mccormick1[39]: - u[39] + r[39] <= 0
 mccormick1[40]: - u[40] + r[40] <= 0
 mccormick1[41]: - u[41] + r[41] <= 0
 mccormick1[42]: - u[42] + r[42] <= 0
 mccormick1[43]: - u[43] + r[43] <= 0
 mccormick1[44]: - u[44] + r[44] <= 0
 mccormick1[45]: - u[45] + r[45] <= 0
 mccormick1[46]: - u[46] + r[46] <= 0
 mccormick1[47]: - u[47] + r[47] <= 0
 mccormick1[48]: - u[48] + r[48] <= 0
 mccormick1[49]: - u[49] + r[49] <= 0
 mccormick1[50]: - u[50] + r[50] <= 0
 mccormick1[51]: - u[51] + r[51] <= 0
 mccormick1[52]: - u[52] + r[52] <= 0
 mccormick1[53]: - u[53] + r[53] <= 0
 mccormick1[54]: - u[54] + r[54] <= 0
 mccormick1[55]: - u[55] + r[55] <= 0
 mccormick1[56]: - u[56] + r[56] <= 0
 mccormick1[57]: - u[57] + r[57] <= 0
 mccormick1[58]: - u[58] + r[58] <= 0
 mccormick1[59]: - u[59] + r[59] <= 0
 mccormick1[60]: - u[60] + r[60] <= 0
 mccormick1[61]: - u[61] + r[61] <= 0
 mccormick1[62]: - u[62] + r[62] <= 0
 mccormick1[63]: - u[63] + r[63] <= 0
 mccormick1[64]: - u[64] + r[64] <= 0
 mccormick1[65]: - u[65] + r[65] <= 0
 mccormick1[66]: - u[66] + r[66] <= 0
 mccormick1[67]: - u[67] + r[67] <= 0
 mccormick1[68]: - u[68] + r[68] <= 0
 mccormick1[69]: - u[69] + r[69] <= 0
 mccormick1[70]: - u[70] + r[70] <= 0
 mccormick1[71]: - u[71] + r[71] <= 0
 mccormick1[72]: - u[72] + r[72] <= 0
 mccormick1[73]: - u[73] + r[73] <= 0
 mccormick1[74]: - u[74] + r[74] <= 0
 mccormick1[75]: - u[75] + r[75] <= 0
 mccormick1[76]: - u[76] + r[76] <= 0
 mccormick1[77]: - u[77] + r[77] <= 0
 mccormick1[78]: - u[78] + r[78] <= 0
 mccormick1[79]: - u[79] + r[79] <= 0
 mccormick2[0]: - x[0] + r[0] <= 0
 mccormick2[1]: - x[1] + r[1] <= 0
 mccormick2[2]: - x[2] + r[2] <= 0
 mccormick2[3]: - x[3] + r[3] <= 0
 mccormick2[4]: - x[4] + r[4] <= 0
 mccormick2[5]: - x[5] + r[5] <= 0
 mccormick2[6]: - x[6] + r[6] <= 0
 mccormick2[7]: - x[7] + r[7] <= 0
 mccormick2[8]: - x[8] + r[8] <= 0
 mccormick2[9]: - x[9] + r[9] <= 0
 mccormick2[10]: - x[10] + r[10] <= 0
 mccormick2[11]: - x[11] + r[11] <= 0
 mccormick2[12]: - x[12] + r[12] <= 0
 mccormick2[13]: - x[13] + r[13] <= 0
 mccormick2[14]: - x[14] + r[14] <= 0
 mccormick2[15]: - x[15] + r[15] <= 0
 mccormick2[16]: - x[16] + r[16] <= 0
 mccormick2[17]: - x[17] + r[17] <= 0
 mccormick2[18]: - x[18] + r[18] <= 0
 mccormick2[19]: - x[19] + r[19] <= 0
 mccormick2[20]: - x[20] + r[20] <= 0
 mccormick2[21]: - x[21] + r[21] <= 0
 mccormick2[22]: - x[22] + r[22] <= 0
 mccormick2[23]: - x[23] + r[23] <= 0
 mccormick2[24]: - x[24] + r[24] <= 0
 mccormick2[25]: - x[25] + r[25] <= 0
 mccormick2[26]: - x[26] + r[26] <= 0
 mccormick2[27]: - x[27] + r[27] <= 0
 mccormick2[28]: - x[28] + r[28] <= 0
 mccormick2[29]: - x[29] + r[29] <= 0
 mccormick2[30]: - x[30] + r[30] <= 0
 mccormick2[31]: - x[31] + r[31] <= 0
 mccormick2[32]: - x[32] + r[32] <= 0
 mccormick2[33]: - x[33] + r[33] <= 0
 mccormick2[34]: - x[34] + r[34] <= 0
 mccormick2[35]: - x[35] + r[35] <= 0
 mccormick2[36]: - x[36] + r[36] <= 0
 mccormick2[37]: - x[37] + r[37] <= 0
 mccormick2[38]: - x[38] + r[38] <= 0
 mccormick2[39]: - x[39] + r[39] <= 0
 mccormick2[40]: - x[40] + r[40] <= 0
 mccormick2[41]: - x[41] + r[41] <= 0
 mccormick2[42]: - x[42] + r[42] <= 0
 mccormick2[43]: - x[43] + r[43] <= 0
 mccormick2[44]: - x[44] + r[44] <= 0
 mccormick2[45]: - x[45] + r[45] <= 0
 mccormick2[46]: - x[46] + r[46] <= 0
 mccormick2[47]: - x[47] + r[47] <= 0
 mccormick2[48]: - x[48] + r[48] <= 0
 mccormick2[49]: - x[49] + r[49] <= 0
 mccormick2[50]: - x[50] + r[50] <= 0
 mccormick2[51]: - x[51] + r[51] <= 0
 mccormick2[52]: - x[52] + r[52] <= 0
 mccormick2[53]: - x[53] + r[53] <= 0
 mccormick2[54]: - x[54] + r[54] <= 0
 mccormick2[55]: - x[55] + r[55] <= 0
 mccormick2[56]: - x[56] + r[56] <= 0
 mccormick2[57]: - x[57] + r[57] <= 0
 mccormick2[58]: - x[58] + r[58] <= 0
 mccormick2[59]: - x[59] + r[59] <= 0
 mccormick2[60]: - x[60] + r[60] <= 0
 mccormick2[61]: - x[61] + r[61] <= 0
 mccormick2[62]: - x[62] + r[62] <= 0
 mccormick2[63]: - x[63] + r[63] <= 0
 mccormick2[64]: - x[64] + r[64] <= 0
 mccormick2[65]: - x[65] + r[65] <= 0
 mccormick2[66]: - x[66] + r[66] <= 0
 mccormick2[67]: - x[67] + r[67] <= 0
 mccormick2[68]: - x[68] + r[68] <= 0
 mccormick2[69]: - x[69] + r[69] <= 0
 mccormick2[70]: - x[70] + r[70] <= 0
 mccormick2[71]: - x[71] + r[71] <= 0
 mccormick2[72]: - x[72] + r[72] <= 0
 mccormick2[73]: - x[73] + r[73] <= 0
 mccormick2[74]: - x[74] + r[74] <= 0
 mccormick2[75]: - x[75] + r[75] <= 0
 mccormick2[76]: - x[76] + r[76] <= 0
 mccormick2[77]: - x[77] + r[77] <= 0
 mccormick2[78]: - x[78] + r[78] <= 0
 mccormick2[79]: - x[79] + r[79] <= 0
 mccormick3[0]: x[0] + u[0] - r[0] <= 1
 mccormick3[1]: x[1] + u[1] - r[1] <= 1
 mccormick3[2]: x[2] + u[2] - r[2] <= 1
 mccormick3[3]: x[3] + u[3] - r[3] <= 1
 mccormick3[4]: x[4] + u[4] - r[4] <= 1
 mccormick3[5]: x[5] + u[5] - r[5] <= 1
 mccormick3[6]: x[6] + u[6] - r[6] <= 1
 mccormick3[7]: x[7] + u[7] - r[7] <= 1
 mccormick3[8]: x[8] + u[8] - r[8] <= 1
 mccormick3[9]: x[9] + u[9] - r[9] <= 1
 mccormick3[10]: x[10] + u[10] - r[10] <= 1
 mccormick3[11]: x[11] + u[11] - r[11] <= 1
 mccormick3[12]: x[12] + u[12] - r[12] <= 1
 mccormick3[13]: x[13] + u[13] - r[13] <= 1
 mccormick3[14]: x[14] + u[14] - r[14] <= 1
 mccormick3[15]: x[15] + u[15] - r[15] <= 1
 mccormick3[16]: x[16] + u[16] - r[16] <= 1
 mccormick3[17]: x[17] + u[17] - r[17] <= 1
 mccormick3[18]: x[18] + u[18] - r[18] <= 1
 mccormick3[19]: x[19] + u[19] - r[19] <= 1
 mccormick3[20]: x[20] + u[20] - r[20] <= 1
 mccormick3[21]: x[21] + u[21] - r[21] <= 1
 mccormick3[22]: x[22] + u[22] - r[22] <= 1
 mccormick3[23]: x[23] + u[23] - r[23] <= 1
 mccormick3[24]: x[24] + u[24] - r[24] <= 1
 mccormick3[25]: x[25] + u[25] - r[25] <= 1
 mccormick3[26]: x[26] + u[26] - r[26] <= 1
 mccormick3[27]: x[27] + u[27] - r[27] <= 1
 mccormick3[28]: x[28] + u[28] - r[28] <= 1
 mccormick3[29]: x[29] + u[29] - r[29] <= 1
 mccormick3[30]: x[30] + u[30] - r[30] <= 1
 mccormick3[31]: x[31] + u[31] - r[31] <= 1
 mccormick3[32]: x[32] + u[32] - r[32] <= 1
 mccormick3[33]: x[33] + u[33] - r[33] <= 1
 mccormick3[34]: x[34] + u[34] - r[34] <= 1
 mccormick3[35]: x[35] + u[35] - r[35] <= 1
 mccormick3[36]: x[36] + u[36] - r[36] <= 1
 mccormick3[37]: x[37] + u[37] - r[37] <= 1
 mccormick3[38]: x[38] + u[38] - r[38] <= 1
 mccormick3[39]: x[39] + u[39] - r[39] <= 1
 mccormick3[40]: x[40] + u[40] - r[40] <= 1
 mccormick3[41]: x[41] + u[41] - r[41] <= 1
 mccormick3[42]: x[42] + u[42] - r[42] <= 1
 mccormick3[43]: x[43] + u[43] - r[43] <= 1
 mccormick3[44]: x[44] + u[44] - r[44] <= 1
 mccormick3[45]: x[45] + u[45] - r[45] <= 1
 mccormick3[46]: x[46] + u[46] - r[46] <= 1
 mccormick3[47]: x[47] + u[47] - r[47] <= 1
 mccormick3[48]: x[48] + u[48] - r[48] <= 1
 mccormick3[49]: x[49] + u[49] - r[49] <= 1
 mccormick3[50]: x[50] + u[50] - r[50] <= 1
 mccormick3[51]: x[51] + u[51] - r[51] <= 1
 mccormick3[52]: x[52] + u[52] - r[52] <= 1
 mccormick3[53]: x[53] + u[53] - r[53] <= 1
 mccormick3[54]: x[54] + u[54] - r[54] <= 1
 mccormick3[55]: x[55] + u[55] - r[55] <= 1
 mccormick3[56]: x[56] + u[56] - r[56] <= 1
 mccormick3[57]: x[57] + u[57] - r[57] <= 1
 mccormick3[58]: x[58] + u[58] - r[58] <= 1
 mccormick3[59]: x[59] + u[59] - r[59] <= 1
 mccormick3[60]: x[60] + u[60] - r[60] <= 1
 mccormick3[61]: x[61] + u[61] - r[61] <= 1
 mccormick3[62]: x[62] + u[62] - r[62] <= 1
 mccormick3[63]: x[63] + u[63] - r[63] <= 1
 mccormick3[64]: x[64] + u[64] - r[64] <= 1
 mccormick3[65]: x[65] + u[65] - r[65] <= 1
 mccormick3[66]: x[66] + u[66] - r[66] <= 1
 mccormick3[67]: x[67] + u[67] - r[67] <= 1
 mccormick3[68]: x[68] + u[68] - r[68] <= 1
 mccormick3[69]: x[69] + u[69] - r[69] <= 1
 mccormick3[70]: x[70] + u[70] - r[70] <= 1
 mccormick3[71]: x[71] + u[71] - r[71] <= 1
 mccormick3[72]: x[72] + u[72] - r[72] <= 1
 mccormick3[73]: x[73] + u[73] - r[73] <= 1
 mccormick3[74]: x[74] + u[74] - r[74] <= 1
 mccormick3[75]: x[75] + u[75] - r[75] <= 1
 mccormick3[76]: x[76] + u[76] - r[76] <= 1
 mccormick3[77]: x[77] + u[77] - r[77] <= 1
 mccormick3[78]: x[78] + u[78] - r[78] <= 1
 mccormick3[79]: x[79] + u[79] - r[79] <= 1
Bounds
Binaries
 x[0] x[1] x[2] x[3] x[4] x[5] x[6] x[7] x[8] x[9] x[10] x[11] x[12] x[13]
 x[14] x[15] x[16] x[17] x[18] x[19] x[20] x[21] x[22] x[23] x[24] x[25]
 x[26] x[27] x[28] x[29] x[30] x[31] x[32] x[33] x[34] x[35] x[36] x[37]
 x[38] x[39] x[40] x[41] x[42] x[43] x[44] x[45] x[46] x[47] x[48] x[49]
 x[50] x[51] x[52] x[53] x[54] x[55] x[56] x[57] x[58] x[59] x[60] x[61]
 x[62] x[63] x[64] x[65] x[66] x[67] x[68] x[69] x[70] x[71] x[72] x[73]
 x[74] x[75] x[76] x[77] x[78] x[79] u[0] u[1] u[2] u[3] u[4] u[5] u[6]
 u[7] u[8] u[9] u[10] u[11] u[12] u[13] u[14] u[15] u[16] u[17] u[18] u[19]
 u[20] u[21] u[22] u[23] u[24] u[25] u[26] u[27] u[28] u[29] u[30] u[31]
 u[32] u[33] u[34] u[35] u[36] u[37] u[38] u[39] u[40] u[41] u[42] u[43]
 u[44] u[45] u[46] u[47] u[48] u[49] u[50] u[51] u[52] u[53] u[54] u[55]
 u[56] u[57] u[58] u[59] u[60] u[61] u[62] u[63] u[64] u[65] u[66] u[67]
 u[68] u[69] u[70] u[71] u[72] u[73] u[74] u[75] u[76] u[77] u[78] u[79]
 r[0] r[1] r[2] r[3] r[4] r[5] r[6] r[7] r[8] r[9] r[10] r[11] r[12] r[13]
 r[14] r[15] r[16] r[17] r[18] r[19] r[20] r[21] r[22] r[23] r[24] r[25]
 r[26] r[27] r[28] r[29] r[30] r[31] r[32] r[33] r[34] r[35] r[36] r[37]
 r[38] r[39] r[40] r[41] r[42] r[43] r[44] r[45] r[46] r[47] r[48] r[49]
 r[50] r[51] r[52] r[53] r[54] r[55] r[56] r[57] r[58] r[59] r[60] r[61]
 r[62] r[63] r[64] r[65] r[66] r[67] r[68] r[69] r[70] r[71] r[72] r[73]
 r[74] r[75] r[76] r[77] r[78] r[79]
End
